Route 1: 42 14 16 44 38 43 17
Route 2: 36 19 11 49 32 1
Route 3: 39 23 22 41 26 4
Route 4: 33 29 9 34 3 24 25
Route 5: 28 27 31 30 20 35
Route 6: 5 2 15 37 13
Route 7: 45 47 7 8 46
Route 8: 12 21 40 10 48
Route 9: 18 6 50
Vehicles: 9
Distance: 1064.89
